\ This file has been generated by DOcplex
\ ENCODING=ISO-8859-1
\Problem name: Orandom20142_6.lp

Minimize
 obj: - 36.000000417176 x0 - 18.000000208588 x1 - 9.000000104294 x2
      - 16.000000417176 x3 - 8.000000208588 x4 - 4.000000104294 x5 + [
      16.000000238386 x0^2 + 16.000000238386 x0*x1 + 8.000000119193 x0*x2
      + 32.000000476773 x0*x3 + 16.000000238386 x0*x4 + 8.000000119193 x0*x5
      + 4.000000059597 x1^2 + 4.000000059597 x1*x2 + 16.000000238386 x1*x3
      + 8.000000119193 x1*x4 + 4.000000059597 x1*x5 + 1.000000014899 x2^2
      + 8.000000119193 x2*x3 + 4.000000059597 x2*x4 + 2.000000029798 x2*x5
      + 80.000000238386 x3^2 + 80.000000238386 x3*x4 + 40.000000119193 x3*x5
      + 20.000000059597 x4^2 + 20.000000059597 x4*x5 + 5.000000014899 x5^2 ]/2 +
      24.500000365029
Subject To

Bounds
 0 <= x0 <= 1
 0 <= x1 <= 1
 0 <= x2 <= 1
 0 <= x3 <= 1
 0 <= x4 <= 1
 0 <= x5 <= 1

Binaries
 x0 x1 x2 x3 x4 x5
End
